10	5
0	5	3	1	7	4	2
1	1	6
2	1	8
3	1	5
4	1	11
5	1	9
6	1	10
7	1	10
8	1	11
9	1	11
10	1	11
11	0
0	0	0	0	0	0	0
1	8	1	1	0	3	0
2	4	1	0	3	1	0
3	9	3	3	1	3	1
4	10	5	4	4	2	3
5	2	0	0	3	0	4
6	2	2	0	5	3	0
7	5	0	3	4	2	2
8	2	5	2	4	0	5
9	9	5	4	2	2	4
10	3	2	5	0	3	5
11	0	0	0	0	0	0
5	5	5	5	5
